# Objective value = 143750
x[3,0] 4.5000000000000007e+04
x[1,2] 30000
x[2,1] 40000
x[4,3] 0
x[0,0] 3.4782608695652176e+04
x[0,3] 6.5217391304347824e+04
x[1,0] 39130.4347826087
x[1,3] 0
x[2,0] 0
x[2,3] 0
x[3,3] 0
x[0,2] 0
x[1,1] 0
x[2,2] 0
x[3,1] 0
x[3,2] 0
x[4,0] 0
x[4,1] 0
x[4,2] 0
